17
200 200
1 82 38 41 12 167 40 178 58 28 139
2 37 13 25 34 33 125 22 153 151 25
3 81 22 19 44 20 70 46 142 21 44
4 16 25 115 22 111 84 59 62 44 60
5 21 64 25 51 7 20 73 44 107 19
6 29 55 16 22 29 18 20 18 121 21
7 52 178 71 22 8 2 32 20 7 32
8 98 39 44 109 21 67 21 34 95 20
9 102 37 41 29 15 65 74 11 26 11
10 46 103 90 87 13 90 5 19 33 9
11 29 86 35 137 7 14 22 31 78 54
12 10 37 31 68 118 76 10 14 31 78
13 63 26 129 44 37 6 46 22 63 83
14 50 11 36 15 32 11 28 8 106 61
15 13 40 17 29 18 69 31 17 11 37
16 60 29 19 54 19 5 33 14 20 5
17 119 20 146 25 51 64 154 47 83 32
